
  32    4
  10   10   10   10

   0   0   0   0   0  21 2 5 8 14 15 16 17 18 19 20 21 22 23 24 25 26 27 28 29 30 31 
  10  10  10  10  10   2 11 3 
   1  10  10  10  10   3 12 10 4 
   5  10  10  10  10   1 6 
   7  10  10  10  10   2 13 10 
   9  10  10  10  10   1 7 
   5  10  10  10  10   1 9 
  10  10  10  10  10   1 11 
   5  10  10  10  10   1 32
  10  10  10  10  10   1 32
   7  10  10  10  10   1 32
   3  10  10  10  10   1 32
   2  10  10  10  10   1 32
   2  10  10  10  10   1 32
   4  10  10  10  10   1 32
   6  10  10  10  10   1 32
   5  10  10  10  10   1 32
   4  10  10  10  10   1 32
   4  10  10  10  10   1 32
   5  10  10  10  10   1 32
   9  10  10  10  10   1 32
   6  10  10  10  10   1 32
   3  10  10  10  10   1 32
   4  10  10  10  10   1 32
   2  10  10  10  10   1 32
   9  10  10  10  10   1 32
   1  10  10  10  10   1 32
   7  10  10  10  10   1 32
   2  10  10  10  10   1 32
   4  10  10  10  10   1 32
   7  10  10  10  10   1 32
   0   0   0   0   0   0 
